;; sequence(s): A275645
;; terms: 1 5 7 11 12 13 14 15 16 17 18 19 20 21 22 23 24 25 26
;; small program: loop(2 + (2 + (((2 + x) mod (x - 2)) + y)), x, 1)
;; fast program: (loop2(((if (x * y) <= 0 then y else x) + x) + x, y - 2, 2, 1, x) - 1) + x
(set-logic UFNIA)
(define-fun modf ((a Int) (b Int)) Int (ite (< 0 b) (mod a b) (- (mod (- a) (- b)))))
(declare-fun f0 (Int Int) Int)
(declare-fun g0 (Int) Int)
(declare-fun h0 () Int)
(declare-fun u0 (Int Int) Int)
(declare-fun v0 (Int) Int)
(declare-fun small (Int) Int)
(declare-fun f1 (Int Int) Int)
(declare-fun g1 (Int Int) Int)
(declare-fun h1 () Int)
(declare-fun i1 () Int)
(declare-fun j1 (Int) Int)
(declare-fun u1 (Int Int Int) Int)
(declare-fun v1 (Int Int Int) Int)
(declare-fun w1 (Int) Int)
(declare-fun fast (Int) Int)
(assert (forall ((x Int) (y Int)) (= (f0 x y) (+ 2 (+ 2 (+ (modf (+ 2 x) (- x 2)) y))))))
(assert (forall ((x Int)) (= (g0 x) x)))
(assert (= h0 1))
(assert (forall ((x Int) (y Int)) (= (u0 x y) (ite (<= x 0) y (f0 (u0 (- x 1) y) x)))))
(assert (forall ((x Int)) (= (v0 x) (u0 (g0 x) h0))))
(assert (forall ((x Int)) (= (small x) (v0 x))))
(assert (forall ((x Int) (y Int)) (= (f1 x y) (+ (+ (ite (<= (* x y) 0) y x) x) x))))
(assert (forall ((x Int) (y Int)) (= (g1 x y) (- y 2))))
(assert (= h1 2))
(assert (= i1 1))
(assert (forall ((x Int)) (= (j1 x) x)))
(assert (forall ((x Int) (y Int) (z Int)) (= (u1 x y z) (ite (<= x 0) y (f1 (u1 (- x 1) y z) (v1 (- x 1) y z))))))
(assert (forall ((x Int) (y Int) (z Int)) (= (v1 x y z) (ite (<= x 0) z (g1 (u1 (- x 1) y z) (v1 (- x 1) y z))))))
(assert (forall ((x Int)) (= (w1 x) (u1 h1 i1 (j1 x)))))
(assert (forall ((x Int)) (= (fast x) (+ (- (w1 x) 1) x))))
(assert (exists ((c Int)) (and (>= c 0) (not (= (small c) (fast c))))))
(check-sat)
